p cnf 211 788
-1 -2 3 0
-4 -5 6 0
-7 -8 9 0
-10 -11 12 0
-13 -14 15 0
-16 -17 18 0
-1 -19 20 0
-4 -21 22 0
-7 -23 24 0
-10 -25 26 0
-13 -27 28 0
-16 -29 30 0
-31 -32 33 0
-3 -34 35 0
-6 -36 37 0
-9 -38 39 0
-12 -40 41 0
-15 -42 43 0
-31 -44 45 0
-3 -46 47 0
-6 -48 49 0
-9 -50 51 0
-12 -52 53 0
-15 -54 55 0
-56 -57 58 0
-20 -59 60 0
-22 -61 62 0
-24 -63 64 0
-26 -65 66 0
-28 -67 68 0
-56 -69 70 0
-20 -71 72 0
-22 -73 74 0
-24 -75 76 0
-26 -77 78 0
-28 -79 80 0
-81 -82 3 0
-33 -83 6 0
-35 -84 9 0
-37 -85 12 0
-39 -86 15 0
-41 -87 18 0
-81 -88 89 0
-33 -90 91 0
-35 -92 93 0
-37 -94 95 0
-39 -96 97 0
-41 -98 99 0
-100 -101 102 0
-45 -103 104 0
-47 -105 106 0
-49 -107 108 0
-51 -109 110 0
-53 -111 112 0
-100 -113 114 0
-45 -115 116 0
-47 -117 118 0
-49 -119 120 0
-51 -121 122 0
-53 -123 124 0
-125 -126 127 0
-58 -128 129 0
-60 -130 131 0
-62 -132 133 0
-64 -134 135 0
-66 -136 137 0
-125 -138 139 0
-58 -140 141 0
-60 -142 143 0
-62 -144 145 0
-64 -146 147 0
-66 -148 149 0
-150 -151 20 0
-70 -152 22 0
-72 -153 24 0
-74 -154 26 0
-76 -155 28 0
-78 -156 30 0
-150 -157 158 0
-70 -159 160 0
-72 -161 162 0
-74 -163 164 0
-76 -165 166 0
-78 -167 168 0
-169 -170 89 0
-89 -171 91 0
-91 -172 93 0
-93 -173 95 0
-95 -174 97 0
-97 -175 99 0
-176 -177 102 0
-102 -178 104 0
-104 -179 106 0
-106 -180 108 0
-108 -181 110 0
-110 -182 112 0
-183 -184 114 0
-114 -185 116 0
-116 -186 118 0
-118 -187 120 0
-120 -188 122 0
-122 -189 124 0
-190 -191 127 0
-127 -192 129 0
-129 -193 131 0
-131 -194 133 0
-133 -195 135 0
-135 -196 137 0
-197 -198 139 0
-139 -199 141 0
-141 -200 143 0
-143 -201 145 0
-145 -202 147 0
-147 -203 149 0
-204 -205 158 0
-158 -206 160 0
-160 -207 162 0
-162 -208 164 0
-164 -209 166 0
-166 -210 168 0
1 0
169 89 91 93 95 97 99 0
-1 -31 0
-1 -56 0
-1 -81 0
-1 -100 0
-1 -125 0
-1 -150 0
-1 -169 0
-1 -176 0
-1 -183 0
-1 -190 0
-1 -197 0
-1 -204 0
-31 -56 0
-31 -81 0
-31 -100 0
-31 -125 0
-31 -150 0
-31 -169 0
-31 -176 0
-31 -183 0
-31 -190 0
-31 -197 0
-31 -204 0
-56 -81 0
-56 -100 0
-56 -125 0
-56 -150 0
-56 -169 0
-56 -176 0
-56 -183 0
-56 -190 0
-56 -197 0
-56 -204 0
-81 -100 0
-81 -125 0
-81 -150 0
-81 -169 0
-81 -176 0
-81 -183 0
-81 -190 0
-81 -197 0
-81 -204 0
-100 -125 0
-100 -150 0
-100 -169 0
-100 -176 0
-100 -183 0
-100 -190 0
-100 -197 0
-100 -204 0
-125 -150 0
-125 -169 0
-125 -176 0
-125 -183 0
-125 -190 0
-125 -197 0
-125 -204 0
-150 -169 0
-150 -176 0
-150 -183 0
-150 -190 0
-150 -197 0
-150 -204 0
-169 -176 0
-169 -183 0
-169 -190 0
-169 -197 0
-169 -204 0
-176 -183 0
-176 -190 0
-176 -197 0
-176 -204 0
-183 -190 0
-183 -197 0
-183 -204 0
-190 -197 0
-190 -204 0
-197 -204 0
-4 -3 0
-4 -20 0
-4 -33 0
-4 -45 0
-4 -58 0
-4 -70 0
-4 -89 0
-4 -102 0
-4 -114 0
-4 -127 0
-4 -139 0
-4 -158 0
-3 -20 0
-3 -33 0
-3 -45 0
-3 -58 0
-3 -70 0
-3 -89 0
-3 -102 0
-3 -114 0
-3 -127 0
-3 -139 0
-3 -158 0
-20 -33 0
-20 -45 0
-20 -58 0
-20 -70 0
-20 -89 0
-20 -102 0
-20 -114 0
-20 -127 0
-20 -139 0
-20 -158 0
-33 -45 0
-33 -58 0
-33 -70 0
-33 -89 0
-33 -102 0
-33 -114 0
-33 -127 0
-33 -139 0
-33 -158 0
-45 -58 0
-45 -70 0
-45 -89 0
-45 -102 0
-45 -114 0
-45 -127 0
-45 -139 0
-45 -158 0
-58 -70 0
-58 -89 0
-58 -102 0
-58 -114 0
-58 -127 0
-58 -139 0
-58 -158 0
-70 -89 0
-70 -102 0
-70 -114 0
-70 -127 0
-70 -139 0
-70 -158 0
-89 -102 0
-89 -114 0
-89 -127 0
-89 -139 0
-89 -158 0
-102 -114 0
-102 -127 0
-102 -139 0
-102 -158 0
-114 -127 0
-114 -139 0
-114 -158 0
-127 -139 0
-127 -158 0
-139 -158 0
-7 -6 0
-7 -22 0
-7 -35 0
-7 -47 0
-7 -60 0
-7 -72 0
-7 -91 0
-7 -104 0
-7 -116 0
-7 -129 0
-7 -141 0
-7 -160 0
-6 -22 0
-6 -35 0
-6 -47 0
-6 -60 0
-6 -72 0
-6 -91 0
-6 -104 0
-6 -116 0
-6 -129 0
-6 -141 0
-6 -160 0
-22 -35 0
-22 -47 0
-22 -60 0
-22 -72 0
-22 -91 0
-22 -104 0
-22 -116 0
-22 -129 0
-22 -141 0
-22 -160 0
-35 -47 0
-35 -60 0
-35 -72 0
-35 -91 0
-35 -104 0
-35 -116 0
-35 -129 0
-35 -141 0
-35 -160 0
-47 -60 0
-47 -72 0
-47 -91 0
-47 -104 0
-47 -116 0
-47 -129 0
-47 -141 0
-47 -160 0
-60 -72 0
-60 -91 0
-60 -104 0
-60 -116 0
-60 -129 0
-60 -141 0
-60 -160 0
-72 -91 0
-72 -104 0
-72 -116 0
-72 -129 0
-72 -141 0
-72 -160 0
-91 -104 0
-91 -116 0
-91 -129 0
-91 -141 0
-91 -160 0
-104 -116 0
-104 -129 0
-104 -141 0
-104 -160 0
-116 -129 0
-116 -141 0
-116 -160 0
-129 -141 0
-129 -160 0
-141 -160 0
-10 -9 0
-10 -24 0
-10 -37 0
-10 -49 0
-10 -62 0
-10 -74 0
-10 -93 0
-10 -106 0
-10 -118 0
-10 -131 0
-10 -143 0
-10 -162 0
-9 -24 0
-9 -37 0
-9 -49 0
-9 -62 0
-9 -74 0
-9 -93 0
-9 -106 0
-9 -118 0
-9 -131 0
-9 -143 0
-9 -162 0
-24 -37 0
-24 -49 0
-24 -62 0
-24 -74 0
-24 -93 0
-24 -106 0
-24 -118 0
-24 -131 0
-24 -143 0
-24 -162 0
-37 -49 0
-37 -62 0
-37 -74 0
-37 -93 0
-37 -106 0
-37 -118 0
-37 -131 0
-37 -143 0
-37 -162 0
-49 -62 0
-49 -74 0
-49 -93 0
-49 -106 0
-49 -118 0
-49 -131 0
-49 -143 0
-49 -162 0
-62 -74 0
-62 -93 0
-62 -106 0
-62 -118 0
-62 -131 0
-62 -143 0
-62 -162 0
-74 -93 0
-74 -106 0
-74 -118 0
-74 -131 0
-74 -143 0
-74 -162 0
-93 -106 0
-93 -118 0
-93 -131 0
-93 -143 0
-93 -162 0
-106 -118 0
-106 -131 0
-106 -143 0
-106 -162 0
-118 -131 0
-118 -143 0
-118 -162 0
-131 -143 0
-131 -162 0
-143 -162 0
-13 -12 0
-13 -26 0
-13 -39 0
-13 -51 0
-13 -64 0
-13 -76 0
-13 -95 0
-13 -108 0
-13 -120 0
-13 -133 0
-13 -145 0
-13 -164 0
-12 -26 0
-12 -39 0
-12 -51 0
-12 -64 0
-12 -76 0
-12 -95 0
-12 -108 0
-12 -120 0
-12 -133 0
-12 -145 0
-12 -164 0
-26 -39 0
-26 -51 0
-26 -64 0
-26 -76 0
-26 -95 0
-26 -108 0
-26 -120 0
-26 -133 0
-26 -145 0
-26 -164 0
-39 -51 0
-39 -64 0
-39 -76 0
-39 -95 0
-39 -108 0
-39 -120 0
-39 -133 0
-39 -145 0
-39 -164 0
-51 -64 0
-51 -76 0
-51 -95 0
-51 -108 0
-51 -120 0
-51 -133 0
-51 -145 0
-51 -164 0
-64 -76 0
-64 -95 0
-64 -108 0
-64 -120 0
-64 -133 0
-64 -145 0
-64 -164 0
-76 -95 0
-76 -108 0
-76 -120 0
-76 -133 0
-76 -145 0
-76 -164 0
-95 -108 0
-95 -120 0
-95 -133 0
-95 -145 0
-95 -164 0
-108 -120 0
-108 -133 0
-108 -145 0
-108 -164 0
-120 -133 0
-120 -145 0
-120 -164 0
-133 -145 0
-133 -164 0
-145 -164 0
-16 -15 0
-16 -28 0
-16 -41 0
-16 -53 0
-16 -66 0
-16 -78 0
-16 -97 0
-16 -110 0
-16 -122 0
-16 -135 0
-16 -147 0
-16 -166 0
-15 -28 0
-15 -41 0
-15 -53 0
-15 -66 0
-15 -78 0
-15 -97 0
-15 -110 0
-15 -122 0
-15 -135 0
-15 -147 0
-15 -166 0
-28 -41 0
-28 -53 0
-28 -66 0
-28 -78 0
-28 -97 0
-28 -110 0
-28 -122 0
-28 -135 0
-28 -147 0
-28 -166 0
-41 -53 0
-41 -66 0
-41 -78 0
-41 -97 0
-41 -110 0
-41 -122 0
-41 -135 0
-41 -147 0
-41 -166 0
-53 -66 0
-53 -78 0
-53 -97 0
-53 -110 0
-53 -122 0
-53 -135 0
-53 -147 0
-53 -166 0
-66 -78 0
-66 -97 0
-66 -110 0
-66 -122 0
-66 -135 0
-66 -147 0
-66 -166 0
-78 -97 0
-78 -110 0
-78 -122 0
-78 -135 0
-78 -147 0
-78 -166 0
-97 -110 0
-97 -122 0
-97 -135 0
-97 -147 0
-97 -166 0
-110 -122 0
-110 -135 0
-110 -147 0
-110 -166 0
-122 -135 0
-122 -147 0
-122 -166 0
-135 -147 0
-135 -166 0
-147 -166 0
-211 -18 0
-211 -30 0
-211 -43 0
-211 -55 0
-211 -68 0
-211 -80 0
-211 -99 0
-211 -112 0
-211 -124 0
-211 -137 0
-211 -149 0
-211 -168 0
-18 -30 0
-18 -43 0
-18 -55 0
-18 -68 0
-18 -80 0
-18 -99 0
-18 -112 0
-18 -124 0
-18 -137 0
-18 -149 0
-18 -168 0
-30 -43 0
-30 -55 0
-30 -68 0
-30 -80 0
-30 -99 0
-30 -112 0
-30 -124 0
-30 -137 0
-30 -149 0
-30 -168 0
-43 -55 0
-43 -68 0
-43 -80 0
-43 -99 0
-43 -112 0
-43 -124 0
-43 -137 0
-43 -149 0
-43 -168 0
-55 -68 0
-55 -80 0
-55 -99 0
-55 -112 0
-55 -124 0
-55 -137 0
-55 -149 0
-55 -168 0
-68 -80 0
-68 -99 0
-68 -112 0
-68 -124 0
-68 -137 0
-68 -149 0
-68 -168 0
-80 -99 0
-80 -112 0
-80 -124 0
-80 -137 0
-80 -149 0
-80 -168 0
-99 -112 0
-99 -124 0
-99 -137 0
-99 -149 0
-99 -168 0
-112 -124 0
-112 -137 0
-112 -149 0
-112 -168 0
-124 -137 0
-124 -149 0
-124 -168 0
-137 -149 0
-137 -168 0
-149 -168 0
-2 -19 0
-5 -21 0
-8 -23 0
-11 -25 0
-14 -27 0
-17 -29 0
-32 -44 0
-34 -46 0
-36 -48 0
-38 -50 0
-40 -52 0
-42 -54 0
-57 -69 0
-59 -71 0
-61 -73 0
-63 -75 0
-65 -77 0
-67 -79 0
-82 -88 0
-83 -90 0
-84 -92 0
-85 -94 0
-86 -96 0
-87 -98 0
-101 -113 0
-103 -115 0
-105 -117 0
-107 -119 0
-109 -121 0
-111 -123 0
-126 -138 0
-128 -140 0
-130 -142 0
-132 -144 0
-134 -146 0
-136 -148 0
-151 -157 0
-152 -159 0
-153 -161 0
-154 -163 0
-155 -165 0
-156 -167 0
2 19 0
5 21 0
8 23 0
11 25 0
14 27 0
17 29 0
32 44 0
34 46 0
36 48 0
38 50 0
40 52 0
42 54 0
57 69 0
59 71 0
61 73 0
63 75 0
65 77 0
67 79 0
82 88 0
83 90 0
84 92 0
85 94 0
86 96 0
87 98 0
101 113 0
103 115 0
105 117 0
107 119 0
109 121 0
111 123 0
126 138 0
128 140 0
130 142 0
132 144 0
134 146 0
136 148 0
151 157 0
152 159 0
153 161 0
154 163 0
155 165 0
156 167 0
170 0
171 0
172 0
173 0
174 0
175 0
177 0
178 0
179 0
180 0
181 0
182 0
184 0
185 0
186 0
187 0
188 0
189 0
191 0
192 0
193 0
194 0
195 0
196 0
198 0
199 0
200 0
201 0
202 0
203 0
205 0
206 0
207 0
208 0
209 0
210 0
c p weight 2 0.5 0
c p weight -2 1 0
c p weight 5 0.5 0
c p weight -5 1 0
c p weight 8 0.5 0
c p weight -8 1 0
c p weight 11 0.5 0
c p weight -11 1 0
c p weight 14 0.5 0
c p weight -14 1 0
c p weight 17 0.5 0
c p weight -17 1 0
c p weight 19 0.5 0
c p weight -19 1 0
c p weight 21 0.5 0
c p weight -21 1 0
c p weight 23 0.5 0
c p weight -23 1 0
c p weight 25 0.5 0
c p weight -25 1 0
c p weight 27 0.5 0
c p weight -27 1 0
c p weight 29 0.5 0
c p weight -29 1 0
c p weight 32 0.5 0
c p weight -32 1 0
c p weight 34 0.5 0
c p weight -34 1 0
c p weight 36 0.5 0
c p weight -36 1 0
c p weight 38 0.5 0
c p weight -38 1 0
c p weight 40 0.5 0
c p weight -40 1 0
c p weight 42 0.5 0
c p weight -42 1 0
c p weight 44 0.5 0
c p weight -44 1 0
c p weight 46 0.5 0
c p weight -46 1 0
c p weight 48 0.5 0
c p weight -48 1 0
c p weight 50 0.5 0
c p weight -50 1 0
c p weight 52 0.5 0
c p weight -52 1 0
c p weight 54 0.5 0
c p weight -54 1 0
c p weight 57 0.5 0
c p weight -57 1 0
c p weight 59 0.5 0
c p weight -59 1 0
c p weight 61 0.5 0
c p weight -61 1 0
c p weight 63 0.5 0
c p weight -63 1 0
c p weight 65 0.5 0
c p weight -65 1 0
c p weight 67 0.5 0
c p weight -67 1 0
c p weight 69 0.5 0
c p weight -69 1 0
c p weight 71 0.5 0
c p weight -71 1 0
c p weight 73 0.5 0
c p weight -73 1 0
c p weight 75 0.5 0
c p weight -75 1 0
c p weight 77 0.5 0
c p weight -77 1 0
c p weight 79 0.5 0
c p weight -79 1 0
c p weight 82 0.5 0
c p weight -82 1 0
c p weight 83 0.5 0
c p weight -83 1 0
c p weight 84 0.5 0
c p weight -84 1 0
c p weight 85 0.5 0
c p weight -85 1 0
c p weight 86 0.5 0
c p weight -86 1 0
c p weight 87 0.5 0
c p weight -87 1 0
c p weight 88 0.5 0
c p weight -88 1 0
c p weight 90 0.5 0
c p weight -90 1 0
c p weight 92 0.5 0
c p weight -92 1 0
c p weight 94 0.5 0
c p weight -94 1 0
c p weight 96 0.5 0
c p weight -96 1 0
c p weight 98 0.5 0
c p weight -98 1 0
c p weight 101 0.5 0
c p weight -101 1 0
c p weight 103 0.5 0
c p weight -103 1 0
c p weight 105 0.5 0
c p weight -105 1 0
c p weight 107 0.5 0
c p weight -107 1 0
c p weight 109 0.5 0
c p weight -109 1 0
c p weight 111 0.5 0
c p weight -111 1 0
c p weight 113 0.5 0
c p weight -113 1 0
c p weight 115 0.5 0
c p weight -115 1 0
c p weight 117 0.5 0
c p weight -117 1 0
c p weight 119 0.5 0
c p weight -119 1 0
c p weight 121 0.5 0
c p weight -121 1 0
c p weight 123 0.5 0
c p weight -123 1 0
c p weight 126 0.5 0
c p weight -126 1 0
c p weight 128 0.5 0
c p weight -128 1 0
c p weight 130 0.5 0
c p weight -130 1 0
c p weight 132 0.5 0
c p weight -132 1 0
c p weight 134 0.5 0
c p weight -134 1 0
c p weight 136 0.5 0
c p weight -136 1 0
c p weight 138 0.5 0
c p weight -138 1 0
c p weight 140 0.5 0
c p weight -140 1 0
c p weight 142 0.5 0
c p weight -142 1 0
c p weight 144 0.5 0
c p weight -144 1 0
c p weight 146 0.5 0
c p weight -146 1 0
c p weight 148 0.5 0
c p weight -148 1 0
c p weight 151 0.5 0
c p weight -151 1 0
c p weight 152 0.5 0
c p weight -152 1 0
c p weight 153 0.5 0
c p weight -153 1 0
c p weight 154 0.5 0
c p weight -154 1 0
c p weight 155 0.5 0
c p weight -155 1 0
c p weight 156 0.5 0
c p weight -156 1 0
c p weight 157 0.5 0
c p weight -157 1 0
c p weight 159 0.5 0
c p weight -159 1 0
c p weight 161 0.5 0
c p weight -161 1 0
c p weight 163 0.5 0
c p weight -163 1 0
c p weight 165 0.5 0
c p weight -165 1 0
c p weight 167 0.5 0
c p weight -167 1 0
c p weight 170 1.0 0
c p weight -170 1 0
c p weight 171 1.0 0
c p weight -171 1 0
c p weight 172 1.0 0
c p weight -172 1 0
c p weight 173 1.0 0
c p weight -173 1 0
c p weight 174 1.0 0
c p weight -174 1 0
c p weight 175 1.0 0
c p weight -175 1 0
c p weight 177 1.0 0
c p weight -177 1 0
c p weight 178 1.0 0
c p weight -178 1 0
c p weight 179 1.0 0
c p weight -179 1 0
c p weight 180 1.0 0
c p weight -180 1 0
c p weight 181 1.0 0
c p weight -181 1 0
c p weight 182 1.0 0
c p weight -182 1 0
c p weight 184 1.0 0
c p weight -184 1 0
c p weight 185 1.0 0
c p weight -185 1 0
c p weight 186 1.0 0
c p weight -186 1 0
c p weight 187 1.0 0
c p weight -187 1 0
c p weight 188 1.0 0
c p weight -188 1 0
c p weight 189 1.0 0
c p weight -189 1 0
c p weight 191 1.0 0
c p weight -191 1 0
c p weight 192 1.0 0
c p weight -192 1 0
c p weight 193 1.0 0
c p weight -193 1 0
c p weight 194 1.0 0
c p weight -194 1 0
c p weight 195 1.0 0
c p weight -195 1 0
c p weight 196 1.0 0
c p weight -196 1 0
c p weight 198 1.0 0
c p weight -198 1 0
c p weight 199 1.0 0
c p weight -199 1 0
c p weight 200 1.0 0
c p weight -200 1 0
c p weight 201 1.0 0
c p weight -201 1 0
c p weight 202 1.0 0
c p weight -202 1 0
c p weight 203 1.0 0
c p weight -203 1 0
c p weight 205 1.0 0
c p weight -205 1 0
c p weight 206 1.0 0
c p weight -206 1 0
c p weight 207 1.0 0
c p weight -207 1 0
c p weight 208 1.0 0
c p weight -208 1 0
c p weight 209 1.0 0
c p weight -209 1 0
c p weight 210 1.0 0
c p weight -210 1 0
